NAME : eil51.566.tour
COMMENT : Cost = 118_566
COMMENT : Found by LKH [Keld Helsgaun] Thu Nov 16 20:48:27 2017
TYPE : TOUR
DIMENSION : 55
TOUR_SECTION
1
32
5
37
15
45
33
39
10
49
38
11
54
28
31
8
26
7
43
24
23
48
55
2
16
50
9
30
34
21
29
20
35
36
3
22
52
46
12
17
44
42
13
25
14
6
27
53
18
41
40
19
4
47
51
-1
EOF
